NAME           
ROWS
 N  fobj    
 L  con1    
 L  con2    
COLUMNS
    x1        fobj                 4   con1               0.7
    x1        con2               0.1
    x2        fobj                 1   con1                 1
    x2        con2             0.025
RHS
    rhs       con1               630   con2               135
BOUNDS
 LI bnd       x1                  10
 LO bnd       x2                  20
 UP bnd       x2                 500
ENDATA
